
List of user-set options:

                                    Name   Value                used
                           compl_inf_tol = 1                     yes
                         constr_viol_tol = 1                     yes
                            dual_inf_tol = 1000                  yes
                           linear_solver = ma97                  yes
                              ma86_small = 1e-30                  no
                                  ma86_u = 0.0001                 no
                              ma97_order = best                  yes
                              ma97_small = 1e-30                 yes
                            ma97_switch1 = at_start              yes
                            ma97_switch2 = od_hd_reuse           yes
                                  ma97_u = 1e-06                 yes
                               ma97_umax = 0.5                   yes
                                max_iter = 1000                  yes
                    max_refinement_steps = 20                    yes
                    min_refinement_steps = 5                     yes
                                 mu_init = 1e-06                 yes
           mu_superlinear_decrease_power = 1.25                  yes
                   nlp_scaling_min_value = 1e-08                 yes
                        option_file_name = Preset_Case_634_pf.opt  yes
                             output_file = ./tmp/Preset_Case_634_pf.output  yes
                      print_user_options = yes                   yes
        required_infeasibility_reduction = 1                      no
                                     tol = 1e-08                 yes
                   warm_start_bound_frac = 1e-20                 yes
                   warm_start_bound_push = 1e-20                 yes
                   warm_start_init_point = yes                   yes
              warm_start_mult_bound_push = 1e-20                 yes
                warm_start_mult_init_max = 1e+40                 yes
             warm_start_slack_bound_frac = 1e-20                 yes
             warm_start_slack_bound_push = 1e-20                 yes

******************************************************************************
This program contains Ipopt, a library for large-scale nonlinear optimization.
 Ipopt is released as open source code under the Eclipse Public License (EPL).
         For more information visit http://projects.coin-or.org/Ipopt
******************************************************************************

This is Ipopt version 3.12.10, running with linear solver ma97.

Number of nonzeros in equality constraint Jacobian...:   123443
Number of nonzeros in inequality constraint Jacobian.:      213
Number of nonzeros in Lagrangian Hessian.............:    49069

Total number of variables............................:    31591
                     variables with only lower bounds:    12912
                variables with lower and upper bounds:    15130
                     variables with only upper bounds:        0
Total number of equality constraints.................:    31483
Total number of inequality constraints...............:       25
        inequality constraints with only lower bounds:        4
   inequality constraints with lower and upper bounds:        0
        inequality constraints with only upper bounds:       21

iter    objective    inf_pr   inf_du lg(mu)  ||d||  lg(rg) alpha_du alpha_pr  ls
   0 -5.2039685e+00 4.06e-03 1.02e+00  -6.0 0.00e+00    -  0.00e+00 0.00e+00   0
   1 -5.2035420e+00 3.11e-01 3.36e+00  -6.0 3.30e+05    -  1.02e-04 2.27e-04h  2
   2 -5.2053305e+00 3.11e-01 5.23e+00  -6.0 5.60e+03    -  2.16e-02 2.08e-03h  1
   3 -5.2267063e+00 1.84e+01 1.07e+01  -6.0 3.63e+04    -  1.34e-02 2.40e-02f  1
   4 -5.2352250e+00 3.68e+01 1.74e+01  -6.0 7.86e+04    -  6.95e-02 1.16e-02h  1
   5 -5.2352282e+00 3.68e+01 7.44e+01  -6.0 3.33e+01  -4.0 2.18e-01 2.48e-04h  1
   6 -5.3263573e+00 3.26e+01 1.61e+02  -6.0 5.31e+03    -  5.19e-02 1.13e-01h  1
   7 -5.4696616e+00 3.92e+01 2.72e+03  -6.0 5.34e+03    -  3.92e-01 2.22e-01h  1
   8 -5.4767517e+00 3.88e+01 2.59e+03  -6.0 5.49e+03    -  3.77e-01 1.66e-02h  1
   9 -5.4936198e+00 3.81e+01 2.52e+03  -6.0 5.08e+03    -  6.61e-02 3.90e-02h  1
iter    objective    inf_pr   inf_du lg(mu)  ||d||  lg(rg) alpha_du alpha_pr  ls
  10 -5.7742131e+00 2.53e+01 2.20e+03  -6.0 2.32e+03    -  2.66e-01 6.50e-01h  1
  11 -5.7749929e+00 2.51e+01 1.89e+03  -6.0 6.33e+03    -  1.51e-01 1.42e-01h  1
  12 -5.7751807e+00 2.49e+01 1.63e+03  -6.0 2.97e+03    -  2.12e-01 1.40e-01h  1
  13 -5.7752953e+00 2.43e+01 4.44e+03  -6.0 3.41e+03    -  1.80e-02 1.64e-01h  1
  14 -5.7754414e+00 2.88e+01 1.59e+04  -6.0 4.36e+03    -  2.44e-03 1.63e-01h  1
  15 -5.7756928e+00 2.95e+01 1.43e+04  -6.0 4.36e+03    -  4.75e-03 9.36e-02h  1
  16 -5.7759705e+00 2.93e+01 1.42e+04  -6.0 4.82e+03    -  7.90e-04 1.05e-02h  1
  17 -5.7752779e+00 2.88e+01 1.37e+04  -6.0 4.79e+03    -  1.87e-01 3.85e-02h  1
  18 -5.7738879e+00 2.91e+01 1.28e+04  -6.0 5.13e+03    -  3.83e-02 6.30e-02h  3
  19 -5.7734919e+00 2.88e+01 1.26e+04  -6.0 5.41e+03    -  8.99e-02 1.84e-02h  5
iter    objective    inf_pr   inf_du lg(mu)  ||d||  lg(rg) alpha_du alpha_pr  ls
  20 -5.7732983e+00 2.86e+01 1.25e+04  -6.0 5.51e+03    -  1.82e-01 9.07e-03h  6
  21 -5.7732500e+00 2.85e+01 1.24e+04  -6.0 5.59e+03    -  2.02e-01 2.28e-03h  8
  22 -5.7732493e+00 2.85e+01 1.24e+04  -6.0 5.59e+03    -  8.19e-02 3.61e-05h 14
  23 -5.7732486e+00 2.85e+01 1.24e+04  -6.0 5.77e+03    -  2.76e-02 2.89e-05h 13
  24 -5.7716188e+00 2.99e+01 1.15e+04  -6.0 5.60e+03    -  2.56e-02 7.70e-02h  3
  25 -5.7707935e+00 2.99e+01 1.10e+04  -6.0 6.00e+03    -  4.16e-01 4.14e-02h  3
  26 -5.7659673e+00 2.47e+01 8.33e+03  -6.0 1.38e+03    -  6.26e-01 2.42e-01h  1
  27 -5.7551392e+00 7.57e+00 2.46e+03  -6.0 4.99e+02    -  2.11e-01 7.02e-01h  1
  28 -5.7552849e+00 7.22e+00 2.15e+05  -6.0 1.46e+02  -4.5 2.29e-03 4.65e-02h  1
  29 -5.7465107e+00 2.17e-02 6.00e+02  -6.0 2.39e+00  -5.0 1.95e-01 1.00e+00h  1
iter    objective    inf_pr   inf_du lg(mu)  ||d||  lg(rg) alpha_du alpha_pr  ls
  30 -5.7470586e+00 2.91e-02 3.54e+01  -6.0 6.04e+00  -5.4 7.40e-01 1.00e+00h  1
  31 -5.7478668e+00 1.71e-02 2.84e+00  -6.0 1.70e+01  -5.9 1.00e+00 1.00e+00h  1
  32 -5.7481542e+00 1.86e-02 8.94e+00  -6.0 5.20e+01  -6.4 1.47e-01 1.05e-01h  1
  33 -5.7557327e+00 8.30e-01 4.91e+01  -6.0 1.68e+02  -6.9 1.00e+00 1.00e+00f  1
  34 -5.7615744e+00 1.08e+00 5.46e+02  -6.0 2.17e+03  -7.3 5.15e-02 4.63e-02h  1
  35 -5.7625641e+00 4.58e+00 7.02e+03  -6.0 4.78e+03    -  5.81e-02 1.04e-01h  1
  36 -5.7639349e+00 4.67e+00 8.27e+03  -6.0 4.29e+03    -  6.84e-02 2.51e-02h  1
  37 -5.7662178e+00 1.97e+01 1.82e+04  -6.0 8.76e+03    -  1.56e-01 1.03e-01h  1
  38 -5.7692268e+00 1.67e+01 1.12e+05  -6.0 7.42e+02    -  6.09e-01 1.70e-01h  1
  39 -5.7779824e+00 5.47e+01 6.28e+04  -6.0 3.04e+03    -  4.88e-01 4.69e-01h  1
iter    objective    inf_pr   inf_du lg(mu)  ||d||  lg(rg) alpha_du alpha_pr  ls
  40 -5.7835479e+00 7.22e+01 2.81e+04  -6.0 4.69e+03    -  1.19e-01 2.68e-01h  1
  41 -5.7837946e+00 7.14e+01 4.24e+05  -6.0 3.79e+03    -  1.39e-03 1.26e-02h  1
  42 -5.7838094e+00 7.14e+01 3.57e+04  -6.0 2.53e+05    -  2.11e-03 1.37e-04h  1
  43 -5.7838200e+00 7.14e+01 9.68e+04  -6.0 9.48e+03    -  2.33e-02 3.71e-04f  1
  44 -5.7840709e+00 7.06e+01 1.30e+05  -6.0 6.10e+03    -  4.11e-03 1.13e-02h  1
  45 -5.7844994e+00 6.96e+01 4.39e+05  -6.0 5.82e+03    -  8.42e-03 1.83e-02h  1
  46 -5.7847221e+00 6.90e+01 3.70e+05  -6.0 8.14e+03    -  6.18e-02 9.21e-03h  1
  47 -5.7851973e+00 6.80e+01 1.33e+06  -6.0 6.46e+03    -  5.20e-03 1.95e-02h  1
  48 -5.7853312e+00 6.77e+01 1.49e+06  -6.0 7.11e+03    -  1.04e-02 4.96e-03h  1
  49 -5.7862594e+00 6.63e+01 1.44e+06  -6.0 6.67e+03  -7.8 1.06e-02 3.91e-02h  1
iter    objective    inf_pr   inf_du lg(mu)  ||d||  lg(rg) alpha_du alpha_pr  ls
  50 -5.7865440e+00 6.56e+01 1.42e+06  -6.0 6.91e+03    -  7.75e-05 1.13e-02h  1
  51 -5.7871868e+00 6.43e+01 1.38e+06  -6.0 5.68e+03    -  2.46e-04 2.66e-02h  1
  52 -5.7886255e+00 6.08e+01 1.29e+06  -6.0 3.05e+03    -  8.23e-03 6.61e-02h  1
  53 -5.7996527e+00 3.25e+01 6.85e+05  -6.0 2.73e+02    -  9.55e-02 4.66e-01f  1
  54 -5.8067023e+00 2.58e+01 5.44e+05  -6.0 4.13e+02    -  2.99e-01 2.07e-01h  1
  55 -5.8079647e+00 2.49e+01 5.25e+05  -6.0 8.96e+02    -  5.43e-02 3.50e-02h  1
  56r-5.8079647e+00 2.49e+01 1.00e+03   1.3 0.00e+00    -  0.00e+00 6.02e-08R  2
  57r-6.8136499e+00 2.48e+01 1.00e+03   1.3 1.25e+06    -  3.92e-08 1.03e-07f  1
  58 -6.8096477e+00 2.47e+01 1.56e+03  -6.0 5.35e+01    -  2.58e-06 4.02e-03h  1
  59 -6.7643833e+00 2.36e+01 1.48e+03  -6.0 5.40e+01    -  1.00e-02 4.55e-02h  1
iter    objective    inf_pr   inf_du lg(mu)  ||d||  lg(rg) alpha_du alpha_pr  ls
  60 -6.6392349e+00 2.07e+01 1.30e+03  -6.0 5.13e+01    -  6.45e-02 1.26e-01h  1
  61 -6.3955589e+00 1.46e+01 9.17e+02  -6.0 4.44e+01    -  1.80e-01 2.94e-01h  1
  62 -6.3148492e+00 1.25e+01 7.87e+02  -6.0 3.05e+01    -  5.43e-01 1.42e-01h  1
  63 -5.8071532e+00 2.21e-02 2.79e+01  -6.0 2.52e+01    -  8.14e-01 9.98e-01h  1
  64 -5.8068408e+00 6.31e-05 3.23e+00  -6.0 1.40e+00    -  9.84e-01 1.00e+00h  1
  65 -5.8100531e+00 8.58e-02 7.04e+00  -6.0 5.17e+01    -  8.97e-01 1.00e+00h  1
  66 -5.8137057e+00 2.37e-01 8.99e+00  -6.0 1.42e+02    -  9.09e-01 5.57e-01h  1
  67 -5.8139838e+00 6.95e-01 1.37e+01  -6.0 8.33e+02    -  6.44e-01 7.96e-02h  1
  68 -5.8168732e+00 6.27e-01 1.53e+00  -6.0 1.85e+02    -  9.02e-01 1.00e+00h  1
  69 -5.8166422e+00 7.48e-01 1.52e+01  -6.0 7.65e+02    -  9.66e-01 1.40e-01h  1
iter    objective    inf_pr   inf_du lg(mu)  ||d||  lg(rg) alpha_du alpha_pr  ls
  70 -5.8164673e+00 8.24e-01 2.06e+01  -6.0 7.76e+02    -  1.00e+00 1.25e-01h  4
  71 -5.8163214e+00 9.79e-01 2.49e+01  -6.0 9.57e+02    -  7.72e-01 1.25e-01h  4
  72 -5.8162613e+00 1.01e+00 3.80e+01  -6.0 1.17e+03    -  1.00e+00 6.25e-02h  5
  73 -5.8162073e+00 1.07e+00 4.24e+01  -6.0 1.30e+03    -  5.39e-01 6.25e-02h  5
  74 -5.8161831e+00 1.07e+00 5.96e+01  -6.0 1.44e+03    -  1.00e+00 3.12e-02h  6
  75 -5.8161604e+00 1.08e+00 6.61e+01  -6.0 1.52e+03    -  5.13e-01 3.12e-02h  6
  76 -5.8161389e+00 1.09e+00 8.42e+01  -6.0 1.60e+03    -  1.00e+00 3.12e-02h  6
  77 -5.8161189e+00 1.10e+00 9.17e+01  -6.0 1.68e+03    -  4.98e-01 3.12e-02h  6
  78 -5.8161000e+00 1.12e+00 1.16e+02  -6.0 1.76e+03    -  1.00e+00 3.12e-02h  6
  79 -5.8160832e+00 1.14e+00 1.27e+02  -6.0 1.85e+03    -  4.89e-01 3.00e-02h  6
iter    objective    inf_pr   inf_du lg(mu)  ||d||  lg(rg) alpha_du alpha_pr  ls
  80 -5.8156217e+00 5.10e+01 2.62e+01  -6.0 1.94e+03    -  1.00e+00 8.74e-01w  1
  81 -5.8157295e+00 5.25e+01 7.65e+01  -6.0 4.31e+03    -  3.25e-01 2.00e-01w  1
  82 -5.8156564e+00 5.03e+01 6.61e+04  -6.0 3.57e+03    -  1.30e-02 2.19e-01w  1
  83 -5.8160687e+00 1.16e+00 1.63e+02  -6.0 2.52e+03    -  1.00e+00 2.73e-02h  5
  84 -5.8160557e+00 1.18e+00 1.82e+02  -6.0 2.02e+03    -  4.89e-01 2.64e-02h  6
  85 -5.8160445e+00 1.19e+00 2.38e+02  -6.0 2.11e+03    -  1.00e+00 2.40e-02h  6
  86 -5.8160393e+00 1.19e+00 2.77e+02  -6.0 2.18e+03    -  5.01e-01 1.18e-02h  7
  87 -5.8160345e+00 1.19e+00 3.70e+02  -6.0 2.22e+03    -  1.00e+00 1.13e-02h  7
  88 -5.8160297e+00 1.19e+00 4.31e+02  -6.0 2.26e+03    -  5.40e-01 1.17e-02h  7
  89 -5.8160251e+00 1.19e+00 5.76e+02  -6.0 2.30e+03    -  1.00e+00 1.14e-02h  7
iter    objective    inf_pr   inf_du lg(mu)  ||d||  lg(rg) alpha_du alpha_pr  ls
  90 -5.8160205e+00 1.19e+00 6.93e+02  -6.0 2.34e+03    -  5.98e-01 1.19e-02h  7
  91 -5.8160161e+00 1.18e+00 9.43e+02  -6.0 2.38e+03    -  1.00e+00 1.17e-02h  7
  92 -5.8160119e+00 1.18e+00 1.17e+03  -6.0 2.42e+03    -  6.84e-01 1.15e-02h  7
  93 -5.8157540e+00 5.52e+01 3.16e+02  -6.0 2.46e+03    -  1.00e+00 7.23e-01w  1
  94 -5.8157521e+00 5.34e+01 4.95e+02  -6.0 4.23e+03    -  4.75e-02 4.02e-02w  1
  95 -5.8157259e+00 5.00e+01 7.26e+04  -6.0 3.65e+03    -  6.74e-03 1.45e-01w  1
  96 -5.8160079e+00 1.18e+00 1.61e+03  -6.0 3.79e+03    -  1.00e+00 1.13e-02h  6
  97 -5.8160040e+00 1.18e+00 2.07e+03  -6.0 2.49e+03    -  7.59e-01 1.12e-02h  7
  98 -5.8154469e+00 3.56e-01 3.81e+01  -6.0 3.36e+01    -  1.00e+00 7.02e-01h  1
  99 -5.8154761e+00 8.78e-01 2.43e+01  -6.0 2.13e+04    -  5.11e-02 8.19e-03h  4
iter    objective    inf_pr   inf_du lg(mu)  ||d||  lg(rg) alpha_du alpha_pr  ls
 100 -5.8154923e+00 1.25e+00 3.85e+01  -6.0 5.14e+03    -  2.90e-01 2.96e-02h  4
 101 -5.8154857e+00 1.36e+00 4.11e+01  -6.0 1.16e+04    -  1.66e-02 7.36e-03h  3
 102 -5.8154913e+00 1.48e+00 6.94e+01  -6.0 3.50e+03    -  4.21e-01 2.70e-02h  4
 103 -5.8154931e+00 1.49e+00 1.49e+02  -6.0 3.04e+03    -  1.00e+00 1.53e-02h  5
 104 -5.8155476e+00 3.13e+01 1.05e+02  -6.0 2.60e+03    -  1.00e+00 5.20e-01h  1
 105 -5.8151886e+00 4.08e-01 9.69e+01  -6.0 1.53e+03    -  7.90e-01 1.00e+00H  1
 106 -5.8152587e+00 5.70e-01 4.24e+01  -6.0 8.16e+02    -  2.77e-01 1.00e+00H  1
 107 -5.8152683e+00 1.37e-01 8.71e-02  -6.0 9.57e+01    -  1.00e+00 1.00e+00h  1
 108 -5.8152672e+00 3.88e-04 5.23e-04  -6.0 5.18e+00    -  1.00e+00 1.00e+00h  1
 109 -5.8152672e+00 1.60e-08 1.03e-08  -6.0 3.28e-02    -  1.00e+00 1.00e+00h  1
iter    objective    inf_pr   inf_du lg(mu)  ||d||  lg(rg) alpha_du alpha_pr  ls
 110 -5.8153920e+00 2.63e+00 4.10e+01  -7.5 6.13e+02    -  5.37e-01 6.79e-01h  1
 111 -5.8153959e+00 8.22e-01 1.18e+01  -7.5 1.81e+02    -  9.63e-01 8.22e-01h  1
 112 -5.8153904e+00 1.51e-02 2.53e-02  -7.5 3.02e+01    -  1.00e+00 1.00e+00h  1
 113 -5.8153902e+00 2.08e-05 9.31e-06  -7.5 1.17e+00    -  1.00e+00 1.00e+00h  1
 114 -5.8153902e+00 1.16e-09 8.28e-10  -7.5 8.59e-03    -  1.00e+00 1.00e+00h  1
 115 -5.8153918e+00 3.25e-03 8.52e-01  -9.0 1.72e+01    -  9.28e-01 8.35e-01h  1
 116 -5.8153920e+00 1.11e-04 2.11e-04  -9.0 2.65e+00    -  1.00e+00 1.00e+00h  1
 117 -5.8153920e+00 1.19e-09 3.73e-09  -9.0 8.84e-03    -  1.00e+00 1.00e+00h  1

Number of Iterations....: 117

                                   (scaled)                 (unscaled)
Objective...............:  -4.5432750256234042e+00   -5.8153920327979574e+00
Dual infeasibility......:   3.7303343836938432e-09    4.7748280111281190e-09
Constraint violation....:   9.8063411414911155e-10    1.1932570487260818e-09
Complementarity.........:   1.2765753559971350e-09    1.6340164556763328e-09
Overall NLP error.......:   3.7303343836938432e-09    4.7748280111281190e-09


Number of objective function evaluations             = 365
Number of objective gradient evaluations             = 118
Number of equality constraint evaluations            = 365
Number of inequality constraint evaluations          = 365
Number of equality constraint Jacobian evaluations   = 119
Number of inequality constraint Jacobian evaluations = 119
Number of Lagrangian Hessian evaluations             = 117
Total CPU secs in IPOPT (w/o function evaluations)   =    208.602
Total CPU secs in NLP function evaluations           =      6.476

EXIT: Optimal Solution Found.
